p cnf 386 460
-17 -12 -5 21 22 0
-17 -12 -5 21 -22 0
-17 -12 -5 -21 23 0
-17 -12 -5 -21 -23 0
-14 -10 6 24 25 0
-14 -10 6 24 -25 0
-14 -10 6 -24 26 0
-14 -10 6 -24 -26 0
6 20 9 27 28 0
6 20 9 27 -28 0
6 20 9 -27 29 0
6 20 9 -27 -29 0
-12 -5 -9 30 31 0
-12 -5 -9 30 -31 0
-12 -5 -9 -30 32 0
-12 -5 -9 -30 -32 0
-2 -3 -16 33 34 0
-2 -3 -16 33 -34 0
-2 -3 -16 -33 35 0
-2 -3 -16 -33 -35 0
-10 -16 7 36 37 0
-10 -16 7 36 -37 0
-10 -16 7 -36 38 0
-10 -16 7 -36 -38 0
-9 -5 12 39 40 0
-9 -5 12 39 -40 0
-9 -5 12 -39 41 0
-9 -5 12 -39 -41 0
-3 2 -4 42 43 0
-3 2 -4 42 -43 0
-3 2 -4 -42 44 0
-3 2 -4 -42 -44 0
-20 18 9 45 46 0
-20 18 9 45 -46 0
-20 18 9 -45 47 0
-20 18 9 -45 -47 0
14 -12 -17 48 49 0
14 -12 -17 48 -49 0
14 -12 -17 -48 50 0
14 -12 -17 -48 -50 0
14 -8 19 51 52 0
14 -8 19 51 -52 0
14 -8 19 -51 53 0
14 -8 19 -51 -53 0
16 -3 -12 54 55 0
16 -3 -12 54 -55 0
16 -3 -12 -54 56 0
16 -3 -12 -54 -56 0
12 -20 3 57 58 0
12 -20 3 57 -58 0
12 -20 3 -57 59 0
12 -20 3 -57 -59 0
-3 -11 15 60 61 0
-3 -11 15 60 -61 0
-3 -11 15 -60 62 0
-3 -11 15 -60 -62 0
12 9 3 63 64 0
12 9 3 63 -64 0
12 9 3 -63 65 0
12 9 3 -63 -65 0
-20 13 -8 66 67 0
-20 13 -8 66 -67 0
-20 13 -8 -66 68 0
-20 13 -8 -66 -68 0
12 17 9 69 70 0
12 17 9 69 -70 0
12 17 9 -69 71 0
12 17 9 -69 -71 0
-7 -10 -13 72 73 0
-7 -10 -13 72 -73 0
-7 -10 -13 -72 74 0
-7 -10 -13 -72 -74 0
-11 -2 -10 75 76 0
-11 -2 -10 75 -76 0
-11 -2 -10 -75 77 0
-11 -2 -10 -75 -77 0
2 -9 -4 78 79 0
2 -9 -4 78 -79 0
2 -9 -4 -78 80 0
2 -9 -4 -78 -80 0
-2 -7 -1 81 82 0
-2 -7 -1 81 -82 0
-2 -7 -1 -81 83 0
-2 -7 -1 -81 -83 0
11 20 19 84 85 0
11 20 19 84 -85 0
11 20 19 -84 86 0
11 20 19 -84 -86 0
-20 7 15 87 88 0
-20 7 15 87 -88 0
-20 7 15 -87 89 0
-20 7 15 -87 -89 0
8 -16 1 90 91 0
8 -16 1 90 -91 0
8 -16 1 -90 92 0
8 -16 1 -90 -92 0
13 19 -4 93 94 0
13 19 -4 93 -94 0
13 19 -4 -93 95 0
13 19 -4 -93 -95 0
-8 -1 -5 96 97 0
-8 -1 -5 96 -97 0
-8 -1 -5 -96 98 0
-8 -1 -5 -96 -98 0
19 14 15 99 100 0
19 14 15 99 -100 0
19 14 15 -99 101 0
19 14 15 -99 -101 0
6 7 3 102 103 0
6 7 3 102 -103 0
6 7 3 -102 104 0
6 7 3 -102 -104 0
5 -11 -19 105 106 0
5 -11 -19 105 -106 0
5 -11 -19 -105 107 0
5 -11 -19 -105 -107 0
-15 -12 19 108 109 0
-15 -12 19 108 -109 0
-15 -12 19 -108 110 0
-15 -12 19 -108 -110 0
5 16 14 111 112 0
5 16 14 111 -112 0
5 16 14 -111 113 0
5 16 14 -111 -113 0
2 4 -7 114 115 0
2 4 -7 114 -115 0
2 4 -7 -114 116 0
2 4 -7 -114 -116 0
-9 -14 13 117 118 0
-9 -14 13 117 -118 0
-9 -14 13 -117 119 0
-9 -14 13 -117 -119 0
-11 -3 6 120 121 0
-11 -3 6 120 -121 0
-11 -3 6 -120 122 0
-11 -3 6 -120 -122 0
17 -11 15 123 124 0
17 -11 15 123 -124 0
17 -11 15 -123 125 0
17 -11 15 -123 -125 0
-19 -18 -9 126 127 0
-19 -18 -9 126 -127 0
-19 -18 -9 -126 128 0
-19 -18 -9 -126 -128 0
-7 -2 19 129 130 0
-7 -2 19 129 -130 0
-7 -2 19 -129 131 0
-7 -2 19 -129 -131 0
13 3 19 132 133 0
13 3 19 132 -133 0
13 3 19 -132 134 0
13 3 19 -132 -134 0
-13 9 -16 135 136 0
-13 9 -16 135 -136 0
-13 9 -16 -135 137 0
-13 9 -16 -135 -137 0
-7 13 -10 138 139 0
-7 13 -10 138 -139 0
-7 13 -10 -138 140 0
-7 13 -10 -138 -140 0
-11 6 -17 141 142 0
-11 6 -17 141 -142 0
-11 6 -17 -141 143 0
-11 6 -17 -141 -143 0
11 12 19 144 145 0
11 12 19 144 -145 0
11 12 19 -144 146 0
11 12 19 -144 -146 0
-16 -2 -12 147 148 0
-16 -2 -12 147 -148 0
-16 -2 -12 -147 149 0
-16 -2 -12 -147 -149 0
-4 -5 6 150 151 0
-4 -5 6 150 -151 0
-4 -5 6 -150 152 0
-4 -5 6 -150 -152 0
14 -2 1 153 154 0
14 -2 1 153 -154 0
14 -2 1 -153 155 0
14 -2 1 -153 -155 0
-3 4 -15 156 157 0
-3 4 -15 156 -157 0
-3 4 -15 -156 158 0
-3 4 -15 -156 -158 0
-16 12 -11 159 160 0
-16 12 -11 159 -160 0
-16 12 -11 -159 161 0
-16 12 -11 -159 -161 0
-3 -17 -2 162 163 0
-3 -17 -2 162 -163 0
-3 -17 -2 -162 164 0
-3 -17 -2 -162 -164 0
-11 -14 -18 165 166 0
-11 -14 -18 165 -166 0
-11 -14 -18 -165 167 0
-11 -14 -18 -165 -167 0
4 -7 14 168 169 0
4 -7 14 168 -169 0
4 -7 14 -168 170 0
4 -7 14 -168 -170 0
-13 -10 8 171 172 0
-13 -10 8 171 -172 0
-13 -10 8 -171 173 0
-13 -10 8 -171 -173 0
8 4 -17 174 175 0
8 4 -17 174 -175 0
8 4 -17 -174 176 0
8 4 -17 -174 -176 0
-3 -20 -18 177 178 0
-3 -20 -18 177 -178 0
-3 -20 -18 -177 179 0
-3 -20 -18 -177 -179 0
7 -5 10 180 181 0
7 -5 10 180 -181 0
7 -5 10 -180 182 0
7 -5 10 -180 -182 0
-7 -4 16 183 184 0
-7 -4 16 183 -184 0
-7 -4 16 -183 185 0
-7 -4 16 -183 -185 0
-4 -7 12 186 187 0
-4 -7 12 186 -187 0
-4 -7 12 -186 188 0
-4 -7 12 -186 -188 0
-17 5 6 189 190 0
-17 5 6 189 -190 0
-17 5 6 -189 191 0
-17 5 6 -189 -191 0
10 -8 -7 192 193 0
10 -8 -7 192 -193 0
10 -8 -7 -192 194 0
10 -8 -7 -192 -194 0
-11 5 8 195 196 0
-11 5 8 195 -196 0
-11 5 8 -195 197 0
-11 5 8 -195 -197 0
-20 5 -11 198 199 0
-20 5 -11 198 -199 0
-20 5 -11 -198 200 0
-20 5 -11 -198 -200 0
5 19 3 201 202 0
5 19 3 201 -202 0
5 19 3 -201 203 0
5 19 3 -201 -203 0
-8 15 13 204 205 0
-8 15 13 204 -205 0
-8 15 13 -204 206 0
-8 15 13 -204 -206 0
7 11 -5 207 208 0
7 11 -5 207 -208 0
7 11 -5 -207 209 0
7 11 -5 -207 -209 0
-12 17 8 210 211 0
-12 17 8 210 -211 0
-12 17 8 -210 212 0
-12 17 8 -210 -212 0
-18 -10 17 213 214 0
-18 -10 17 213 -214 0
-18 -10 17 -213 215 0
-18 -10 17 -213 -215 0
-15 -16 -4 216 217 0
-15 -16 -4 216 -217 0
-15 -16 -4 -216 218 0
-15 -16 -4 -216 -218 0
4 -12 3 219 220 0
4 -12 3 219 -220 0
4 -12 3 -219 221 0
4 -12 3 -219 -221 0
-8 -5 7 222 223 0
-8 -5 7 222 -223 0
-8 -5 7 -222 224 0
-8 -5 7 -222 -224 0
-6 -10 -9 225 226 0
-6 -10 -9 225 -226 0
-6 -10 -9 -225 227 0
-6 -10 -9 -225 -227 0
-15 5 14 228 229 0
-15 5 14 228 -229 0
-15 5 14 -228 230 0
-15 5 14 -228 -230 0
-12 -16 -1 231 232 0
-12 -16 -1 231 -232 0
-12 -16 -1 -231 233 0
-12 -16 -1 -231 -233 0
6 -16 9 234 235 0
6 -16 9 234 -235 0
6 -16 9 -234 236 0
6 -16 9 -234 -236 0
-10 -4 9 237 238 0
-10 -4 9 237 -238 0
-10 -4 9 -237 239 0
-10 -4 9 -237 -239 0
18 -3 12 240 241 0
18 -3 12 240 -241 0
18 -3 12 -240 242 0
18 -3 12 -240 -242 0
-2 15 -11 243 244 0
-2 15 -11 243 -244 0
-2 15 -11 -243 245 0
-2 15 -11 -243 -245 0
-20 -18 -7 246 247 0
-20 -18 -7 246 -247 0
-20 -18 -7 -246 248 0
-20 -18 -7 -246 -248 0
17 18 13 249 250 0
17 18 13 249 -250 0
17 18 13 -249 251 0
17 18 13 -249 -251 0
-9 -16 12 252 253 0
-9 -16 12 252 -253 0
-9 -16 12 -252 254 0
-9 -16 12 -252 -254 0
-19 -10 -11 255 256 0
-19 -10 -11 255 -256 0
-19 -10 -11 -255 257 0
-19 -10 -11 -255 -257 0
17 -18 -5 258 259 0
17 -18 -5 258 -259 0
17 -18 -5 -258 260 0
17 -18 -5 -258 -260 0
19 -12 8 261 262 0
19 -12 8 261 -262 0
19 -12 8 -261 263 0
19 -12 8 -261 -263 0
-3 -8 19 264 265 0
-3 -8 19 264 -265 0
-3 -8 19 -264 266 0
-3 -8 19 -264 -266 0
-5 -2 -19 267 268 0
-5 -2 -19 267 -268 0
-5 -2 -19 -267 269 0
-5 -2 -19 -267 -269 0
-5 18 -20 270 271 0
-5 18 -20 270 -271 0
-5 18 -20 -270 272 0
-5 18 -20 -270 -272 0
-6 13 11 273 274 0
-6 13 11 273 -274 0
-6 13 11 -273 275 0
-6 13 11 -273 -275 0
-11 17 9 276 277 0
-11 17 9 276 -277 0
-11 17 9 -276 278 0
-11 17 9 -276 -278 0
-19 17 -8 279 280 0
-19 17 -8 279 -280 0
-19 17 -8 -279 281 0
-19 17 -8 -279 -281 0
-19 -12 -10 282 283 0
-19 -12 -10 282 -283 0
-19 -12 -10 -282 284 0
-19 -12 -10 -282 -284 0
-19 -8 -20 285 286 0
-19 -8 -20 285 -286 0
-19 -8 -20 -285 287 0
-19 -8 -20 -285 -287 0
19 -2 -7 288 289 0
19 -2 -7 288 -289 0
19 -2 -7 -288 290 0
19 -2 -7 -288 -290 0
-11 5 -10 291 292 0
-11 5 -10 291 -292 0
-11 5 -10 -291 293 0
-11 5 -10 -291 -293 0
294 295 297 301 309 0
294 295 297 301 -309 0
294 295 297 -301 310 0
294 295 297 -301 -310 0
294 295 -297 302 311 0
294 295 -297 302 -311 0
294 295 -297 -302 312 0
294 295 -297 -302 -312 0
294 -295 298 303 313 0
294 -295 298 303 -313 0
294 -295 298 -303 314 0
294 -295 298 -303 -314 0
294 -295 -298 304 315 0
294 -295 -298 304 -315 0
294 -295 -298 -304 316 0
294 -295 -298 -304 -316 0
-294 296 299 305 317 0
-294 296 299 305 -317 0
-294 296 299 -305 318 0
-294 296 299 -305 -318 0
-294 296 -299 306 319 0
-294 296 -299 306 -319 0
-294 296 -299 -306 320 0
-294 296 -299 -306 -320 0
-294 -296 300 307 321 0
-294 -296 300 307 -321 0
-294 -296 300 -307 322 0
-294 -296 300 -307 -322 0
-294 -296 -300 308 323 0
-294 -296 -300 308 -323 0
-294 -296 -300 -308 324 0
-294 -296 -300 -308 -324 0
325 326 328 332 340 0
325 326 328 332 -340 0
325 326 328 -332 341 0
325 326 328 -332 -341 0
325 326 -328 333 342 0
325 326 -328 333 -342 0
325 326 -328 -333 343 0
325 326 -328 -333 -343 0
325 -326 329 334 344 0
325 -326 329 334 -344 0
325 -326 329 -334 345 0
325 -326 329 -334 -345 0
325 -326 -329 335 346 0
325 -326 -329 335 -346 0
325 -326 -329 -335 347 0
325 -326 -329 -335 -347 0
-325 327 330 336 348 0
-325 327 330 336 -348 0
-325 327 330 -336 349 0
-325 327 330 -336 -349 0
-325 327 -330 337 350 0
-325 327 -330 337 -350 0
-325 327 -330 -337 351 0
-325 327 -330 -337 -351 0
-325 -327 331 338 352 0
-325 -327 331 338 -352 0
-325 -327 331 -338 353 0
-325 -327 331 -338 -353 0
-325 -327 -331 339 354 0
-325 -327 -331 339 -354 0
-325 -327 -331 -339 355 0
-325 -327 -331 -339 -355 0
356 357 359 363 371 0
356 357 359 363 -371 0
356 357 359 -363 372 0
356 357 359 -363 -372 0
356 357 -359 364 373 0
356 357 -359 364 -373 0
356 357 -359 -364 374 0
356 357 -359 -364 -374 0
356 -357 360 365 375 0
356 -357 360 365 -375 0
356 -357 360 -365 376 0
356 -357 360 -365 -376 0
356 -357 -360 366 377 0
356 -357 -360 366 -377 0
356 -357 -360 -366 378 0
356 -357 -360 -366 -378 0
-356 358 361 367 379 0
-356 358 361 367 -379 0
-356 358 361 -367 380 0
-356 358 361 -367 -380 0
-356 358 -361 368 381 0
-356 358 -361 368 -381 0
-356 358 -361 -368 382 0
-356 358 -361 -368 -382 0
-356 -358 362 369 383 0
-356 -358 362 369 -383 0
-356 -358 362 -369 384 0
-356 -358 362 -369 -384 0
-356 -358 -362 370 385 0
-356 -358 -362 370 -385 0
-356 -358 -362 -370 386 0
-356 -358 -362 -370 -386 0

